44
400
318	1
317	1
315	1
310	1
306	1
305	1
293	1
283	1
281	2
273	1
268	1
265	2
264	1
227	1
223	1
215	1
213	1
211	1
206	2
192	1
189	1
186	1
181	1
165	2
160	1
154	1
148	1
141	1
133	2
132	1
92	1
89	1
83	1
75	1
74	1
70	1
67	1
59	1
57	1
55	1
53	1
52	1
43	2
41	1
